
(set-logic HORN)
(declare-datatypes ((Bool_391 0)) (((false_391) (true_391))))
(declare-fun diseqBool_182 (Bool_391 Bool_391) Bool)
(declare-fun isfalse_182 (Bool_391) Bool)
(declare-fun istrue_182 (Bool_391) Bool)
(assert (isfalse_182 false_391))
(assert (istrue_182 true_391))
(assert (diseqBool_182 false_391 true_391))
(assert (diseqBool_182 true_391 false_391))
(declare-fun and_393 (Bool_391 Bool_391 Bool_391) Bool)
(declare-fun or_404 (Bool_391 Bool_391 Bool_391) Bool)
(declare-fun hence_391 (Bool_391 Bool_391 Bool_391) Bool)
(declare-fun not_396 (Bool_391 Bool_391) Bool)
(assert (and_393 false_391 false_391 false_391))
(assert (and_393 false_391 true_391 false_391))
(assert (and_393 false_391 false_391 true_391))
(assert (and_393 true_391 true_391 true_391))
(assert (or_404 false_391 false_391 false_391))
(assert (or_404 true_391 true_391 false_391))
(assert (or_404 true_391 false_391 true_391))
(assert (or_404 true_391 true_391 true_391))
(assert (hence_391 true_391 false_391 false_391))
(assert (hence_391 false_391 true_391 false_391))
(assert (hence_391 true_391 false_391 true_391))
(assert (hence_391 true_391 true_391 true_391))
(assert (not_396 true_391 false_391))
(assert (not_396 false_391 true_391))
(declare-datatypes ((T_10 0)) (((A_74) (B_66) (C_38))))
(declare-fun diseqT_10 (T_10 T_10) Bool)
(declare-fun isA_17 (T_10) Bool)
(declare-fun isB_17 (T_10) Bool)
(declare-fun isC_17 (T_10) Bool)
(assert (isA_17 A_74))
(assert (isB_17 B_66))
(assert (isC_17 C_38))
(assert (diseqT_10 A_74 B_66))
(assert (diseqT_10 A_74 C_38))
(assert (diseqT_10 B_66 A_74))
(assert (diseqT_10 C_38 A_74))
(assert (diseqT_10 B_66 C_38))
(assert (diseqT_10 C_38 B_66))
(declare-datatypes ((list_314 0)) (((nil_351) (cons_311 (head_622 T_10) (tail_625 list_314)))))
(declare-fun diseqlist_311 (list_314 list_314) Bool)
(declare-fun head_623 (T_10 list_314) Bool)
(declare-fun tail_626 (list_314 list_314) Bool)
(declare-fun isnil_351 (list_314) Bool)
(declare-fun iscons_311 (list_314) Bool)
(assert (forall ((x_70087 T_10) (x_70088 list_314))
	(head_623 x_70087 (cons_311 x_70087 x_70088))))
(assert (forall ((x_70087 T_10) (x_70088 list_314))
	(tail_626 x_70088 (cons_311 x_70087 x_70088))))
(assert (isnil_351 nil_351))
(assert (forall ((x_70090 T_10) (x_70091 list_314))
	(iscons_311 (cons_311 x_70090 x_70091))))
(assert (forall ((x_70092 T_10) (x_70093 list_314))
	(diseqlist_311 nil_351 (cons_311 x_70092 x_70093))))
(assert (forall ((x_70094 T_10) (x_70095 list_314))
	(diseqlist_311 (cons_311 x_70094 x_70095) nil_351)))
(assert (forall ((x_70096 T_10) (x_70097 list_314) (x_70098 T_10) (x_70099 list_314))
	(=> (diseqT_10 x_70096 x_70098) (diseqlist_311 (cons_311 x_70096 x_70097) (cons_311 x_70098 x_70099)))))
(assert (forall ((x_70096 T_10) (x_70097 list_314) (x_70098 T_10) (x_70099 list_314))
	(=> (diseqlist_311 x_70097 x_70099) (diseqlist_311 (cons_311 x_70096 x_70097) (cons_311 x_70098 x_70099)))))
(declare-datatypes ((R_504 0)) (((Nil_352) (Eps_48) (Atom_24 (projAtom_48 T_10)) (x_70038 (proj_108 R_504) (proj_109 R_504)) (x_70039 (proj_110 R_504) (proj_111 R_504)) (Star_24 (projStar_48 R_504)))))
(declare-fun diseqR_24 (R_504 R_504) Bool)
(declare-fun projAtom_49 (T_10 R_504) Bool)
(declare-fun proj_112 (R_504 R_504) Bool)
(declare-fun proj_113 (R_504 R_504) Bool)
(declare-fun proj_114 (R_504 R_504) Bool)
(declare-fun proj_115 (R_504 R_504) Bool)
(declare-fun projStar_49 (R_504 R_504) Bool)
(declare-fun isNil_352 (R_504) Bool)
(declare-fun isEps_24 (R_504) Bool)
(declare-fun isAtom_24 (R_504) Bool)
(declare-fun isx_41 (R_504) Bool)
(declare-fun isx_42 (R_504) Bool)
(declare-fun isStar_24 (R_504) Bool)
(assert (forall ((x_70102 T_10))
	(projAtom_49 x_70102 (Atom_24 x_70102))))
(assert (forall ((x_70104 R_504) (x_70105 R_504))
	(proj_112 x_70104 (x_70038 x_70104 x_70105))))
(assert (forall ((x_70104 R_504) (x_70105 R_504))
	(proj_113 x_70105 (x_70038 x_70104 x_70105))))
(assert (forall ((x_70107 R_504) (x_70108 R_504))
	(proj_114 x_70107 (x_70039 x_70107 x_70108))))
(assert (forall ((x_70107 R_504) (x_70108 R_504))
	(proj_115 x_70108 (x_70039 x_70107 x_70108))))
(assert (forall ((x_70110 R_504))
	(projStar_49 x_70110 (Star_24 x_70110))))
(assert (isNil_352 Nil_352))
(assert (isEps_24 Eps_48))
(assert (forall ((x_70112 T_10))
	(isAtom_24 (Atom_24 x_70112))))
(assert (forall ((x_70113 R_504) (x_70114 R_504))
	(isx_41 (x_70038 x_70113 x_70114))))
(assert (forall ((x_70115 R_504) (x_70116 R_504))
	(isx_42 (x_70039 x_70115 x_70116))))
(assert (forall ((x_70117 R_504))
	(isStar_24 (Star_24 x_70117))))
(assert (diseqR_24 Nil_352 Eps_48))
(assert (forall ((x_70118 T_10))
	(diseqR_24 Nil_352 (Atom_24 x_70118))))
(assert (forall ((x_70119 R_504) (x_70120 R_504))
	(diseqR_24 Nil_352 (x_70038 x_70119 x_70120))))
(assert (forall ((x_70121 R_504) (x_70122 R_504))
	(diseqR_24 Nil_352 (x_70039 x_70121 x_70122))))
(assert (forall ((x_70123 R_504))
	(diseqR_24 Nil_352 (Star_24 x_70123))))
(assert (diseqR_24 Eps_48 Nil_352))
(assert (forall ((x_70124 T_10))
	(diseqR_24 (Atom_24 x_70124) Nil_352)))
(assert (forall ((x_70125 R_504) (x_70126 R_504))
	(diseqR_24 (x_70038 x_70125 x_70126) Nil_352)))
(assert (forall ((x_70127 R_504) (x_70128 R_504))
	(diseqR_24 (x_70039 x_70127 x_70128) Nil_352)))
(assert (forall ((x_70129 R_504))
	(diseqR_24 (Star_24 x_70129) Nil_352)))
(assert (forall ((x_70130 T_10))
	(diseqR_24 Eps_48 (Atom_24 x_70130))))
(assert (forall ((x_70131 R_504) (x_70132 R_504))
	(diseqR_24 Eps_48 (x_70038 x_70131 x_70132))))
(assert (forall ((x_70133 R_504) (x_70134 R_504))
	(diseqR_24 Eps_48 (x_70039 x_70133 x_70134))))
(assert (forall ((x_70135 R_504))
	(diseqR_24 Eps_48 (Star_24 x_70135))))
(assert (forall ((x_70136 T_10))
	(diseqR_24 (Atom_24 x_70136) Eps_48)))
(assert (forall ((x_70137 R_504) (x_70138 R_504))
	(diseqR_24 (x_70038 x_70137 x_70138) Eps_48)))
(assert (forall ((x_70139 R_504) (x_70140 R_504))
	(diseqR_24 (x_70039 x_70139 x_70140) Eps_48)))
(assert (forall ((x_70141 R_504))
	(diseqR_24 (Star_24 x_70141) Eps_48)))
(assert (forall ((x_70142 T_10) (x_70143 R_504) (x_70144 R_504))
	(diseqR_24 (Atom_24 x_70142) (x_70038 x_70143 x_70144))))
(assert (forall ((x_70145 T_10) (x_70146 R_504) (x_70147 R_504))
	(diseqR_24 (Atom_24 x_70145) (x_70039 x_70146 x_70147))))
(assert (forall ((x_70148 T_10) (x_70149 R_504))
	(diseqR_24 (Atom_24 x_70148) (Star_24 x_70149))))
(assert (forall ((x_70150 R_504) (x_70151 R_504) (x_70152 T_10))
	(diseqR_24 (x_70038 x_70150 x_70151) (Atom_24 x_70152))))
(assert (forall ((x_70153 R_504) (x_70154 R_504) (x_70155 T_10))
	(diseqR_24 (x_70039 x_70153 x_70154) (Atom_24 x_70155))))
(assert (forall ((x_70156 R_504) (x_70157 T_10))
	(diseqR_24 (Star_24 x_70156) (Atom_24 x_70157))))
(assert (forall ((x_70158 R_504) (x_70159 R_504) (x_70160 R_504) (x_70161 R_504))
	(diseqR_24 (x_70038 x_70158 x_70159) (x_70039 x_70160 x_70161))))
(assert (forall ((x_70162 R_504) (x_70163 R_504) (x_70164 R_504))
	(diseqR_24 (x_70038 x_70162 x_70163) (Star_24 x_70164))))
(assert (forall ((x_70165 R_504) (x_70166 R_504) (x_70167 R_504) (x_70168 R_504))
	(diseqR_24 (x_70039 x_70165 x_70166) (x_70038 x_70167 x_70168))))
(assert (forall ((x_70169 R_504) (x_70170 R_504) (x_70171 R_504))
	(diseqR_24 (Star_24 x_70169) (x_70038 x_70170 x_70171))))
(assert (forall ((x_70172 R_504) (x_70173 R_504) (x_70174 R_504))
	(diseqR_24 (x_70039 x_70172 x_70173) (Star_24 x_70174))))
(assert (forall ((x_70175 R_504) (x_70176 R_504) (x_70177 R_504))
	(diseqR_24 (Star_24 x_70175) (x_70039 x_70176 x_70177))))
(assert (forall ((x_70178 T_10) (x_70179 T_10))
	(=> (diseqT_10 x_70178 x_70179) (diseqR_24 (Atom_24 x_70178) (Atom_24 x_70179)))))
(assert (forall ((x_70180 R_504) (x_70181 R_504) (x_70182 R_504) (x_70183 R_504))
	(=> (diseqR_24 x_70180 x_70182) (diseqR_24 (x_70038 x_70180 x_70181) (x_70038 x_70182 x_70183)))))
(assert (forall ((x_70180 R_504) (x_70181 R_504) (x_70182 R_504) (x_70183 R_504))
	(=> (diseqR_24 x_70181 x_70183) (diseqR_24 (x_70038 x_70180 x_70181) (x_70038 x_70182 x_70183)))))
(assert (forall ((x_70184 R_504) (x_70185 R_504) (x_70186 R_504) (x_70187 R_504))
	(=> (diseqR_24 x_70184 x_70186) (diseqR_24 (x_70039 x_70184 x_70185) (x_70039 x_70186 x_70187)))))
(assert (forall ((x_70184 R_504) (x_70185 R_504) (x_70186 R_504) (x_70187 R_504))
	(=> (diseqR_24 x_70185 x_70187) (diseqR_24 (x_70039 x_70184 x_70185) (x_70039 x_70186 x_70187)))))
(assert (forall ((x_70188 R_504) (x_70189 R_504))
	(=> (diseqR_24 x_70188 x_70189) (diseqR_24 (Star_24 x_70188) (Star_24 x_70189)))))
(declare-fun eps_49 (Bool_391 R_504) Bool)
(assert (forall ((y_2645 R_504))
	(eps_49 true_391 (Star_24 y_2645))))
(assert (forall ((x_70047 Bool_391) (x_70048 Bool_391) (x_70049 Bool_391) (r_505 R_504) (q_197 R_504))
	(=> (and (eps_49 x_70048 r_505) (eps_49 x_70049 q_197) (and_393 x_70047 x_70048 x_70049)) (eps_49 x_70047 (x_70039 r_505 q_197)))))
(assert (forall ((x_70050 Bool_391) (x_70051 Bool_391) (x_70052 Bool_391) (p_459 R_504) (q_198 R_504))
	(=> (and (eps_49 x_70051 p_459) (eps_49 x_70052 q_198) (or_404 x_70050 x_70051 x_70052)) (eps_49 x_70050 (x_70038 p_459 q_198)))))
(assert (eps_49 true_391 Eps_48))
(assert (forall ((x_70041 R_504) (x_70045 T_10))
	(eps_49 false_391 (Atom_24 x_70045))))
(assert (forall ((x_70041 R_504))
	(eps_49 false_391 Nil_352)))
(declare-fun step_24 (R_504 R_504 T_10) Bool)
(assert (forall ((x_70057 R_504) (p_460 R_504) (y_2646 T_10))
	(=> (step_24 x_70057 p_460 y_2646) (step_24 (x_70039 x_70057 (Star_24 p_460)) (Star_24 p_460) y_2646))))
(assert (forall ((x_70060 R_504) (x_70061 R_504) (r_506 R_504) (q_199 R_504) (y_2646 T_10))
	(=> (and (step_24 x_70060 r_506 y_2646) (step_24 x_70061 q_199 y_2646) (eps_49 true_391 r_506)) (step_24 (x_70038 (x_70039 x_70060 q_199) x_70061) (x_70039 r_506 q_199) y_2646))))
(assert (forall ((x_70064 R_504) (r_506 R_504) (q_199 R_504) (y_2646 T_10))
	(=> (and (step_24 x_70064 r_506 y_2646) (eps_49 false_391 r_506)) (step_24 (x_70038 (x_70039 x_70064 q_199) Nil_352) (x_70039 r_506 q_199) y_2646))))
(assert (forall ((x_70066 R_504) (x_70067 R_504) (p_461 R_504) (q_200 R_504) (y_2646 T_10))
	(=> (and (step_24 x_70066 p_461 y_2646) (step_24 x_70067 q_200 y_2646)) (step_24 (x_70038 x_70066 x_70067) (x_70038 p_461 q_200) y_2646))))
(assert (forall ((b_67 T_10))
	(step_24 Eps_48 (Atom_24 b_67) b_67)))
(assert (forall ((b_67 T_10) (y_2646 T_10))
	(=> (diseqT_10 b_67 y_2646) (step_24 Nil_352 (Atom_24 b_67) y_2646))))
(assert (forall ((x_70043 R_504) (y_2646 T_10))
	(step_24 Nil_352 Eps_48 y_2646)))
(assert (forall ((x_70043 R_504) (y_2646 T_10))
	(step_24 Nil_352 Nil_352 y_2646)))
(declare-fun rec_10 (Bool_391 R_504 list_314) Bool)
(assert (forall ((x_70072 Bool_391) (x_70073 R_504) (z_2356 T_10) (xs_781 list_314) (x_70044 R_504))
	(=> (and (step_24 x_70073 x_70044 z_2356) (rec_10 x_70072 x_70073 xs_781)) (rec_10 x_70072 x_70044 (cons_311 z_2356 xs_781)))))
(assert (forall ((x_70075 Bool_391) (x_70044 R_504))
	(=> (eps_49 x_70075 x_70044) (rec_10 x_70075 x_70044 nil_351))))
(assert (forall ((p_462 R_504))
	(=> (and true (rec_10 true_391 p_462 (cons_311 A_74 (cons_311 B_66 (cons_311 A_74 (cons_311 B_66 (cons_311 A_74 nil_351))))))) false)))
(check-sat)
